Minimize
  obj: x0 + x1 + x2 + x3 + x4 + x5 + x6

Subject To
  c0: x0 + x1 + x2 + x4 + x5 = 24
  c1: x2 + x5 = 5
  c2: x1 + x2 + x6 = 20
  c3: x0 + x3 + x4 + x5 + x6 = 32
  c4: x0 + x1 + x2 + x4 + x6 = 34
  c5: x0 + x3 = 14

Bounds
  x0 >= 0
  x1 >= 0
  x2 >= 0
  x3 >= 0
  x4 >= 0
  x5 >= 0
  x6 >= 0

Generals
  x0 x1 x2 x3 x4 x5 x6

End
